33D32945 STP File, STP Format Version 1.0

SECTION Comment
Name	"MWCS-I-D-n-500-a-0.62-d-0.25-e-0.75"
Creator	"CWI_LS_GWK"
Problem "Maximum Node Weight Connected Subgraph"
Comment	"converted from format used in Alvarez-Miranda et al., based on the random geometric instances of Johnson et al."
END

SECTION Graph
Nodes  500
Edges  2597
E 1 18
E 1 320
E 1 323
E 2 6
E 2 56
E 2 76
E 2 113
E 2 121
E 2 175
E 2 189
E 2 199
E 2 255
E 2 355
E 3 102
E 3 141
E 3 203
E 3 260
E 3 262
E 3 269
E 3 277
E 3 294
E 3 418
E 3 423
E 3 430
E 3 445
E 4 86
E 4 148
E 4 198
E 4 209
E 4 238
E 4 272
E 4 380
E 4 386
E 5 19
E 5 21
E 5 36
E 5 89
E 5 137
E 5 147
E 5 184
E 5 281
E 5 287
E 5 382
E 5 419
E 5 443
E 5 451
E 5 478
E 6 52
E 6 56
E 6 136
E 6 175
E 6 189
E 6 199
E 6 276
E 6 292
E 6 343
E 6 499
E 7 38
E 7 50
E 7 64
E 7 75
E 7 150
E 7 161
E 7 166
E 7 303
E 7 307
E 7 350
E 7 445
E 7 484
E 8 214
E 8 264
E 9 65
E 9 110
E 9 138
E 9 144
E 9 173
E 9 190
E 9 249
E 9 266
E 9 297
E 9 299
E 9 390
E 9 393
E 9 452
E 10 44
E 10 58
E 10 94
E 10 206
E 10 240
E 10 268
E 10 392
E 10 454
E 10 462
E 10 467
E 10 498
E 11 257
E 11 447
E 12 149
E 12 296
E 12 311
E 12 366
E 12 491
E 13 173
E 13 190
E 13 224
E 13 266
E 13 297
E 13 325
E 13 367
E 13 390
E 13 393
E 13 441
E 13 452
E 13 470
E 14 15
E 14 102
E 14 185
E 14 262
E 14 332
E 14 373
E 14 430
E 14 439
E 14 477
E 15 102
E 15 115
E 15 117
E 15 185
E 15 256
E 15 262
E 15 332
E 15 373
E 15 430
E 16 48
E 16 88
E 16 109
E 16 121
E 16 164
E 16 181
E 16 187
E 16 230
E 16 253
E 16 259
E 16 355
E 16 362
E 16 401
E 16 434
E 16 456
E 17 71
E 17 73
E 17 142
E 17 158
E 17 160
E 17 283
E 17 317
E 17 369
E 18 109
E 18 164
E 18 174
E 18 225
E 18 234
E 18 300
E 18 304
E 18 320
E 18 323
E 18 370
E 18 377
E 18 388
E 18 455
E 18 456
E 18 488
E 19 26
E 19 93
E 19 118
E 19 177
E 19 184
E 19 231
E 19 246
E 19 287
E 19 378
E 19 382
E 19 419
E 19 469
E 19 478
E 20 43
E 20 70
E 20 73
E 20 125
E 20 158
E 20 160
E 20 168
E 20 191
E 20 192
E 20 217
E 20 413
E 21 36
E 21 89
E 21 137
E 21 147
E 21 196
E 21 258
E 21 281
E 21 382
E 21 419
E 21 443
E 21 451
E 22 69
E 22 254
E 22 274
E 22 475
E 22 485
E 23 81
E 23 98
E 23 126
E 23 222
E 23 273
E 23 406
E 23 464
E 23 474
E 24 37
E 24 73
E 24 81
E 24 99
E 24 101
E 24 114
E 24 188
E 24 216
E 24 387
E 24 403
E 24 437
E 25 205
E 25 265
E 25 340
E 25 480
E 26 93
E 26 118
E 26 177
E 26 184
E 26 186
E 26 246
E 26 282
E 26 469
E 28 41
E 28 43
E 28 70
E 28 120
E 28 125
E 28 162
E 28 168
E 28 260
E 28 269
E 28 277
E 28 294
E 28 334
E 28 368
E 28 418
E 28 436
E 29 34
E 29 87
E 29 155
E 29 182
E 29 200
E 29 289
E 29 313
E 29 322
E 29 435
E 30 66
E 30 226
E 30 389
E 30 476
E 30 497
E 31 54
E 31 68
E 31 193
E 31 264
E 31 324
E 31 385
E 31 431
E 31 442
E 31 448
E 31 450
E 32 132
E 32 157
E 32 295
E 32 395
E 32 428
E 32 429
E 32 433
E 32 483
E 32 492
E 33 79
E 33 152
E 33 220
E 33 232
E 33 305
E 33 394
E 34 87
E 34 155
E 34 182
E 34 200
E 34 289
E 34 313
E 34 322
E 34 336
E 34 363
E 34 426
E 34 435
E 35 67
E 35 90
E 35 117
E 35 119
E 35 124
E 35 128
E 35 229
E 35 233
E 35 256
E 35 270
E 35 278
E 35 316
E 35 357
E 35 381
E 35 414
E 35 457
E 36 89
E 36 137
E 36 147
E 36 227
E 36 281
E 36 382
E 36 419
E 36 443
E 36 451
E 37 73
E 37 81
E 37 99
E 37 101
E 37 114
E 37 192
E 37 387
E 37 403
E 37 437
E 38 50
E 38 59
E 38 61
E 38 64
E 38 150
E 38 166
E 38 307
E 38 331
E 38 350
E 38 440
E 38 494
E 39 46
E 39 78
E 39 104
E 39 108
E 39 215
E 39 219
E 39 275
E 39 306
E 39 416
E 39 424
E 40 129
E 40 132
E 40 157
E 40 194
E 40 288
E 40 295
E 40 349
E 40 389
E 41 43
E 41 70
E 41 120
E 41 125
E 41 162
E 41 168
E 41 260
E 41 277
E 41 294
E 41 368
E 41 418
E 41 436
E 42 75
E 42 97
E 42 127
E 42 179
E 42 197
E 42 302
E 42 307
E 42 339
E 42 410
E 42 484
E 43 70
E 43 120
E 43 125
E 43 158
E 43 160
E 43 162
E 43 168
E 43 191
E 43 203
E 43 260
E 43 277
E 43 368
E 43 413
E 44 58
E 44 200
E 44 204
E 44 252
E 44 289
E 44 454
E 44 462
E 44 467
E 45 159
E 45 167
E 45 272
E 45 327
E 45 354
E 45 361
E 45 386
E 45 471
E 46 104
E 46 108
E 46 201
E 46 215
E 46 306
E 46 402
E 46 416
E 47 53
E 47 61
E 47 100
E 47 145
E 47 213
E 47 334
E 47 337
E 47 371
E 47 460
E 47 486
E 48 88
E 48 109
E 48 164
E 48 181
E 48 187
E 48 230
E 48 253
E 48 259
E 48 355
E 48 362
E 48 401
E 48 434
E 48 456
E 49 54
E 49 68
E 49 80
E 49 95
E 49 98
E 49 126
E 49 314
E 49 385
E 49 397
E 49 431
E 49 450
E 49 474
E 49 481
E 50 64
E 50 75
E 50 161
E 50 166
E 50 269
E 50 294
E 50 303
E 50 307
E 50 350
E 50 445
E 50 484
E 51 52
E 51 56
E 51 107
E 51 245
E 51 276
E 51 292
E 51 343
E 51 499
E 52 56
E 52 136
E 52 152
E 52 175
E 52 189
E 52 245
E 52 276
E 52 292
E 52 343
E 52 499
E 53 100
E 53 145
E 53 153
E 53 334
E 53 368
E 53 371
E 53 412
E 53 459
E 54 68
E 54 126
E 54 324
E 54 385
E 54 397
E 54 431
E 54 442
E 54 448
E 54 450
E 55 169
E 55 172
E 55 237
E 55 258
E 55 281
E 55 396
E 55 407
E 55 495
E 56 136
E 56 152
E 56 175
E 56 189
E 56 199
E 56 276
E 56 292
E 56 343
E 56 499
E 57 82
E 57 150
E 57 176
E 57 227
E 57 329
E 57 360
E 57 410
E 58 91
E 58 94
E 58 123
E 58 200
E 58 206
E 58 240
E 58 252
E 58 268
E 58 363
E 58 392
E 58 426
E 58 454
E 58 462
E 58 467
E 59 77
E 59 150
E 59 165
E 59 166
E 59 331
E 59 376
E 59 440
E 59 494
E 60 96
E 60 154
E 60 247
E 60 293
E 60 304
E 60 370
E 60 408
E 61 64
E 61 213
E 61 337
E 61 350
E 61 371
E 61 436
E 61 440
E 61 460
E 61 494
E 62 134
E 62 241
E 62 353
E 62 415
E 63 119
E 63 140
E 63 228
E 63 231
E 63 233
E 63 278
E 63 287
E 63 308
E 63 316
E 63 357
E 63 378
E 63 381
E 63 391
E 63 399
E 63 417
E 63 446
E 63 478
E 64 150
E 64 161
E 64 166
E 64 269
E 64 294
E 64 307
E 64 331
E 64 350
E 64 445
E 64 484
E 65 106
E 65 110
E 65 138
E 65 144
E 65 170
E 65 249
E 65 266
E 65 299
E 65 390
E 65 393
E 66 226
E 66 389
E 66 476
E 66 497
E 67 185
E 67 229
E 67 271
E 67 414
E 67 457
E 67 477
E 68 126
E 68 385
E 68 387
E 68 431
E 68 442
E 68 448
E 68 450
E 69 254
E 69 274
E 69 383
E 69 475
E 69 485
E 70 120
E 70 125
E 70 158
E 70 160
E 70 162
E 70 168
E 70 191
E 70 260
E 70 413
E 71 158
E 71 160
E 71 203
E 71 283
E 71 317
E 71 369
E 72 77
E 72 112
E 72 284
E 72 321
E 72 460
E 72 486
E 73 99
E 73 101
E 73 142
E 73 188
E 73 216
E 73 403
E 73 437
E 73 466
E 74 284
E 74 364
E 75 127
E 75 150
E 75 161
E 75 166
E 75 179
E 75 197
E 75 302
E 75 307
E 75 339
E 75 484
E 76 88
E 76 113
E 76 121
E 76 171
E 76 255
E 76 348
E 76 355
E 77 243
E 77 321
E 77 331
E 77 337
E 77 440
E 77 460
E 77 494
E 78 104
E 78 122
E 78 130
E 78 212
E 78 215
E 78 219
E 78 341
E 78 416
E 78 424
E 79 220
E 79 305
E 79 394
E 80 95
E 80 98
E 80 267
E 80 330
E 80 395
E 80 406
E 80 428
E 80 429
E 80 433
E 80 474
E 80 481
E 81 192
E 81 217
E 81 222
E 81 273
E 81 403
E 81 464
E 82 89
E 82 131
E 82 176
E 82 227
E 82 329
E 82 360
E 82 396
E 82 410
E 82 444
E 83 103
E 83 273
E 83 301
E 83 346
E 83 347
E 83 438
E 83 464
E 84 129
E 84 194
E 84 226
E 84 242
E 84 338
E 84 340
E 84 349
E 84 352
E 84 476
E 84 497
E 85 88
E 85 121
E 85 171
E 85 230
E 85 244
E 85 300
E 85 351
E 85 468
E 86 148
E 86 209
E 86 238
E 86 250
E 86 380
E 86 479
E 87 155
E 87 182
E 87 223
E 87 263
E 87 280
E 87 313
E 87 322
E 87 398
E 87 435
E 87 500
E 88 121
E 88 171
E 88 230
E 88 244
E 88 255
E 88 355
E 88 434
E 89 137
E 89 147
E 89 227
E 89 281
E 89 382
E 89 419
E 89 443
E 89 451
E 90 119
E 90 124
E 90 128
E 90 221
E 90 233
E 90 270
E 90 278
E 90 316
E 90 328
E 90 333
E 90 357
E 90 381
E 90 399
E 90 414
E 90 417
E 90 457
E 91 94
E 91 123
E 91 135
E 91 193
E 91 236
E 91 240
E 91 268
E 91 363
E 91 426
E 91 462
E 92 139
E 92 178
E 92 202
E 92 208
E 92 296
E 93 118
E 93 184
E 93 186
E 93 246
E 93 345
E 93 379
E 93 469
E 94 123
E 94 180
E 94 206
E 94 236
E 94 240
E 94 268
E 94 311
E 94 358
E 94 392
E 94 462
E 94 491
E 95 98
E 95 267
E 95 314
E 95 330
E 95 428
E 95 433
E 95 474
E 95 481
E 96 110
E 96 154
E 96 190
E 96 249
E 96 266
E 96 299
E 96 374
E 96 390
E 96 408
E 97 127
E 97 197
E 97 227
E 97 287
E 97 308
E 97 339
E 97 410
E 97 419
E 97 446
E 97 478
E 98 126
E 98 222
E 98 267
E 98 330
E 98 406
E 98 433
E 98 474
E 98 481
E 99 101
E 99 114
E 99 188
E 99 216
E 99 387
E 99 403
E 99 437
E 99 463
E 100 145
E 100 153
E 100 334
E 100 368
E 100 371
E 100 412
E 100 459
E 100 473
E 101 114
E 101 142
E 101 188
E 101 216
E 101 387
E 101 403
E 101 437
E 101 463
E 102 262
E 102 303
E 102 332
E 102 373
E 102 430
E 102 445
E 103 157
E 103 222
E 103 273
E 103 346
E 103 406
E 103 438
E 103 464
E 104 108
E 104 122
E 104 201
E 104 215
E 104 306
E 104 341
E 104 402
E 104 416
E 105 133
E 105 177
E 105 218
E 105 282
E 105 290
E 105 372
E 105 409
E 105 411
E 105 421
E 105 427
E 105 458
E 105 469
E 106 138
E 106 144
E 106 155
E 106 170
E 106 223
E 106 289
E 106 299
E 106 313
E 106 398
E 107 245
E 108 215
E 108 275
E 108 306
E 108 416
E 109 164
E 109 174
E 109 181
E 109 187
E 109 225
E 109 230
E 109 234
E 109 253
E 109 259
E 109 300
E 109 304
E 109 320
E 109 323
E 109 370
E 109 377
E 109 401
E 109 455
E 109 456
E 109 488
E 110 154
E 110 190
E 110 249
E 110 266
E 110 299
E 110 325
E 110 374
E 110 390
E 110 408
E 110 452
E 111 207
E 111 226
E 111 235
E 111 242
E 111 356
E 111 453
E 111 476
E 111 497
E 112 205
E 112 284
E 112 364
E 113 121
E 113 195
E 113 255
E 113 348
E 113 355
E 113 404
E 114 188
E 114 216
E 114 336
E 114 387
E 114 403
E 114 437
E 114 442
E 114 463
E 115 117
E 115 179
E 115 256
E 115 302
E 115 303
E 115 332
E 116 143
E 116 210
E 116 315
E 116 369
E 116 423
E 116 439
E 116 472
E 116 487
E 117 124
E 117 128
E 117 185
E 117 256
E 117 270
E 117 278
E 117 332
E 117 357
E 117 457
E 118 184
E 118 196
E 118 345
E 118 379
E 118 382
E 118 383
E 118 449
E 118 451
E 118 485
E 119 124
E 119 128
E 119 221
E 119 233
E 119 256
E 119 270
E 119 278
E 119 308
E 119 316
E 119 357
E 119 381
E 119 399
E 119 414
E 119 417
E 119 457
E 120 125
E 120 141
E 120 158
E 120 160
E 120 162
E 120 168
E 120 191
E 120 203
E 120 260
E 120 277
E 121 171
E 121 230
E 121 255
E 121 348
E 121 355
E 121 434
E 122 130
E 122 151
E 122 201
E 122 212
E 122 215
E 122 341
E 122 402
E 122 411
E 122 416
E 122 421
E 122 422
E 123 135
E 123 200
E 123 236
E 123 240
E 123 252
E 123 268
E 123 363
E 123 426
E 123 454
E 123 462
E 124 128
E 124 229
E 124 233
E 124 256
E 124 270
E 124 278
E 124 308
E 124 316
E 124 357
E 124 381
E 124 414
E 124 457
E 125 153
E 125 160
E 125 162
E 125 168
E 125 191
E 125 260
E 125 368
E 125 413
E 126 314
E 126 385
E 126 431
E 126 450
E 126 474
E 126 481
E 127 179
E 127 197
E 127 302
E 127 339
E 127 410
E 127 484
E 128 233
E 128 256
E 128 270
E 128 278
E 128 308
E 128 316
E 128 357
E 128 381
E 128 414
E 128 457
E 129 194
E 129 265
E 129 288
E 129 338
E 129 349
E 129 352
E 129 480
E 130 140
E 130 212
E 130 328
E 130 333
E 130 341
E 130 421
E 130 422
E 131 156
E 131 169
E 131 172
E 131 176
E 131 237
E 131 258
E 131 261
E 131 329
E 131 396
E 131 444
E 131 495
E 132 295
E 132 389
E 132 395
E 132 483
E 132 492
E 133 151
E 133 218
E 133 290
E 133 319
E 133 409
E 133 411
E 133 421
E 133 427
E 134 285
E 134 291
E 134 353
E 134 415
E 135 193
E 135 236
E 135 336
E 135 363
E 135 426
E 136 152
E 136 175
E 136 189
E 136 232
E 136 276
E 136 292
E 136 351
E 136 499
E 137 147
E 137 184
E 137 196
E 137 281
E 137 382
E 137 419
E 137 443
E 137 451
E 138 144
E 138 155
E 138 170
E 138 289
E 138 299
E 138 313
E 139 149
E 139 178
E 139 202
E 139 208
E 139 296
E 139 366
E 139 491
E 139 498
E 140 221
E 140 228
E 140 316
E 140 328
E 140 333
E 140 372
E 140 378
E 140 381
E 140 391
E 140 399
E 140 417
E 141 160
E 141 162
E 141 203
E 141 260
E 141 277
E 141 418
E 141 423
E 141 439
E 142 182
E 142 188
E 142 216
E 142 317
E 142 435
E 142 437
E 142 466
E 143 315
E 143 423
E 143 439
E 143 472
E 143 487
E 144 155
E 144 170
E 144 289
E 144 299
E 144 313
E 145 334
E 145 337
E 145 371
E 145 412
E 145 459
E 145 473
E 145 486
E 146 186
E 146 254
E 146 318
E 146 326
E 146 342
E 146 344
E 146 345
E 146 383
E 147 196
E 147 258
E 147 281
E 147 382
E 147 419
E 147 443
E 147 451
E 148 209
E 148 238
E 148 250
E 148 380
E 148 479
E 149 202
E 149 206
E 149 208
E 149 296
E 149 311
E 149 358
E 149 366
E 149 392
E 149 491
E 149 498
E 150 166
E 150 307
E 150 331
E 150 360
E 150 484
E 151 201
E 151 218
E 151 319
E 151 402
E 151 411
E 151 421
E 151 422
E 152 175
E 152 189
E 152 232
E 152 292
E 152 310
E 152 351
E 152 400
E 153 334
E 153 347
E 153 368
E 153 371
E 153 412
E 153 459
E 154 234
E 154 304
E 154 320
E 154 370
E 154 374
E 154 377
E 154 408
E 155 200
E 155 252
E 155 289
E 155 313
E 155 322
E 156 172
E 156 176
E 156 261
E 156 329
E 156 360
E 156 384
E 157 288
E 157 295
E 157 330
E 157 346
E 157 395
E 157 406
E 157 438
E 158 160
E 158 168
E 158 203
E 159 212
E 159 333
E 159 354
E 159 471
E 159 482
E 160 168
E 160 203
E 160 260
E 161 166
E 161 303
E 161 307
E 161 350
E 161 445
E 161 484
E 162 168
E 162 260
E 162 269
E 162 277
E 162 294
E 162 368
E 162 418
E 162 436
E 163 248
E 163 300
E 163 365
E 163 388
E 163 468
E 163 488
E 163 489
E 164 174
E 164 181
E 164 187
E 164 225
E 164 230
E 164 234
E 164 253
E 164 259
E 164 300
E 164 304
E 164 320
E 164 323
E 164 370
E 164 377
E 164 401
E 164 434
E 164 455
E 164 456
E 164 488
E 165 243
E 165 257
E 165 331
E 165 360
E 165 376
E 165 384
E 166 307
E 166 331
E 166 350
E 166 484
E 166 494
E 167 198
E 167 272
E 167 286
E 167 312
E 167 327
E 167 361
E 167 386
E 167 404
E 167 471
E 168 191
E 168 203
E 168 260
E 168 413
E 169 172
E 169 237
E 169 258
E 169 396
E 169 444
E 169 495
E 170 223
E 170 249
E 170 299
E 170 313
E 170 398
E 171 230
E 171 244
E 171 255
E 171 351
E 171 355
E 172 237
E 172 258
E 172 261
E 172 329
E 172 396
E 172 444
E 172 495
E 173 251
E 173 266
E 173 279
E 173 297
E 173 335
E 173 367
E 173 393
E 173 441
E 174 225
E 174 300
E 174 320
E 174 323
E 174 377
E 174 388
E 174 455
E 174 456
E 174 488
E 175 189
E 175 276
E 175 292
E 175 351
E 175 499
E 176 329
E 176 360
E 176 396
E 176 444
E 177 228
E 177 231
E 177 246
E 177 282
E 177 290
E 177 372
E 177 378
E 177 391
E 177 458
E 177 469
E 178 202
E 178 208
E 179 197
E 179 256
E 179 302
E 179 308
E 179 339
E 179 410
E 179 484
E 180 214
E 180 311
E 180 358
E 180 366
E 180 491
E 181 187
E 181 230
E 181 253
E 181 259
E 181 362
E 181 401
E 181 434
E 181 455
E 181 456
E 182 309
E 182 317
E 182 322
E 182 435
E 182 466
E 182 500
E 183 239
E 183 271
E 183 286
E 183 298
E 183 327
E 183 493
E 184 231
E 184 246
E 184 379
E 184 382
E 184 419
E 184 443
E 184 451
E 184 478
E 185 229
E 185 332
E 185 373
E 185 430
E 185 477
E 186 246
E 186 282
E 186 318
E 186 326
E 186 342
E 186 344
E 186 345
E 186 383
E 186 427
E 186 458
E 186 469
E 187 225
E 187 230
E 187 253
E 187 259
E 187 401
E 187 434
E 187 455
E 187 456
E 188 216
E 188 336
E 188 403
E 188 437
E 188 463
E 188 466
E 189 276
E 189 292
E 189 343
E 189 351
E 189 499
E 190 224
E 190 249
E 190 266
E 190 325
E 190 374
E 190 390
E 190 452
E 190 470
E 191 192
E 191 217
E 191 347
E 191 368
E 191 413
E 192 217
E 192 273
E 192 347
E 192 413
E 192 464
E 193 236
E 193 442
E 193 448
E 194 265
E 194 288
E 194 338
E 194 349
E 194 352
E 194 389
E 194 480
E 195 312
E 195 348
E 195 380
E 195 386
E 195 404
E 196 211
E 196 281
E 196 379
E 196 382
E 196 449
E 196 451
E 197 302
E 197 339
E 197 410
E 197 484
E 198 209
E 198 219
E 198 272
E 198 361
E 198 380
E 198 386
E 199 276
E 199 343
E 199 380
E 199 479
E 200 252
E 200 289
E 200 313
E 200 363
E 200 426
E 200 454
E 201 215
E 201 306
E 201 319
E 201 402
E 201 416
E 202 208
E 202 296
E 202 498
E 203 260
E 203 277
E 203 423
E 204 251
E 204 279
E 204 467
E 205 284
E 205 340
E 205 425
E 205 465
E 206 240
E 206 268
E 206 311
E 206 358
E 206 366
E 206 392
E 206 462
E 206 467
E 206 491
E 206 498
E 207 226
E 207 235
E 207 242
E 207 338
E 207 432
E 207 453
E 207 476
E 207 497
E 208 296
E 209 238
E 209 380
E 209 479
E 210 283
E 210 309
E 210 369
E 210 405
E 210 487
E 211 274
E 211 449
E 211 475
E 211 485
E 212 333
E 212 341
E 212 482
E 213 269
E 213 294
E 213 334
E 213 337
E 213 368
E 213 371
E 213 436
E 215 306
E 215 341
E 215 402
E 215 416
E 215 422
E 216 336
E 216 387
E 216 403
E 216 437
E 216 463
E 216 466
E 217 273
E 217 347
E 217 413
E 217 464
E 218 282
E 218 290
E 218 319
E 218 372
E 218 409
E 218 411
E 218 421
E 218 427
E 218 458
E 219 272
E 219 424
E 220 232
E 220 305
E 220 394
E 221 278
E 221 316
E 221 328
E 221 333
E 221 381
E 221 399
E 221 417
E 221 482
E 222 267
E 222 273
E 222 330
E 222 346
E 222 406
E 222 464
E 222 474
E 223 247
E 223 263
E 223 280
E 223 299
E 223 313
E 223 375
E 223 398
E 224 266
E 224 297
E 224 325
E 224 367
E 224 374
E 224 441
E 224 452
E 224 470
E 225 230
E 225 253
E 225 259
E 225 300
E 225 323
E 225 388
E 225 401
E 225 455
E 225 456
E 225 488
E 226 242
E 226 338
E 226 352
E 226 389
E 226 453
E 226 476
E 226 497
E 227 410
E 227 443
E 228 231
E 228 328
E 228 372
E 228 378
E 228 381
E 228 391
E 228 399
E 228 417
E 228 446
E 228 478
E 229 270
E 229 414
E 229 457
E 229 477
E 230 253
E 230 259
E 230 300
E 230 355
E 230 401
E 230 434
E 230 456
E 231 287
E 231 378
E 231 391
E 231 399
E 231 417
E 231 419
E 231 446
E 231 478
E 232 310
E 232 351
E 232 400
E 233 256
E 233 270
E 233 278
E 233 308
E 233 316
E 233 357
E 233 381
E 233 399
E 233 417
E 233 457
E 234 304
E 234 320
E 234 370
E 234 377
E 234 455
E 234 456
E 235 242
E 235 356
E 235 453
E 235 497
E 236 240
E 236 268
E 236 363
E 236 426
E 236 462
E 237 258
E 237 396
E 237 495
E 238 250
E 238 380
E 238 479
E 239 271
E 239 286
E 239 298
E 239 327
E 239 493
E 240 268
E 240 363
E 240 392
E 240 426
E 240 454
E 240 462
E 241 247
E 241 293
E 241 415
E 241 496
E 242 338
E 242 340
E 242 352
E 242 453
E 242 476
E 242 497
E 243 257
E 243 321
E 243 376
E 243 384
E 243 447
E 244 310
E 244 351
E 244 365
E 244 400
E 244 468
E 244 489
E 245 276
E 245 343
E 245 499
E 246 282
E 246 345
E 246 458
E 246 469
E 247 263
E 247 280
E 247 293
E 247 375
E 247 398
E 247 408
E 248 310
E 248 365
E 248 400
E 248 468
E 248 489
E 249 266
E 249 299
E 249 390
E 249 408
E 249 452
E 250 275
E 251 279
E 251 335
E 252 289
E 252 313
E 252 363
E 252 426
E 252 454
E 252 462
E 253 259
E 253 362
E 253 401
E 253 434
E 253 455
E 253 456
E 254 318
E 254 326
E 254 345
E 254 383
E 254 475
E 254 485
E 255 348
E 255 355
E 256 270
E 256 278
E 256 302
E 256 308
E 256 357
E 256 457
E 257 376
E 257 384
E 257 447
E 258 281
E 258 396
E 258 444
E 258 495
E 259 362
E 259 401
E 259 434
E 259 455
E 259 456
E 260 269
E 260 277
E 260 418
E 261 329
E 261 384
E 261 447
E 262 303
E 262 332
E 262 373
E 262 430
E 262 445
E 263 280
E 263 375
E 263 398
E 263 500
E 264 324
E 264 448
E 265 288
E 265 301
E 265 349
E 265 473
E 265 480
E 265 490
E 266 297
E 266 299
E 266 325
E 266 367
E 266 374
E 266 390
E 266 393
E 266 452
E 267 330
E 267 395
E 267 406
E 267 428
E 267 429
E 267 433
E 267 474
E 267 481
E 268 363
E 268 392
E 268 426
E 268 454
E 268 462
E 269 277
E 269 294
E 269 350
E 269 418
E 269 436
E 269 445
E 270 278
E 270 308
E 270 316
E 270 357
E 270 381
E 270 414
E 270 457
E 271 327
E 271 477
E 272 361
E 272 386
E 272 424
E 272 471
E 273 346
E 273 347
E 273 464
E 274 449
E 274 475
E 274 485
E 275 306
E 276 292
E 276 343
E 276 479
E 276 499
E 277 294
E 277 418
E 278 308
E 278 316
E 278 357
E 278 381
E 278 399
E 278 414
E 278 417
E 278 457
E 279 297
E 279 335
E 279 367
E 279 393
E 279 441
E 280 375
E 280 398
E 280 496
E 280 500
E 281 396
E 281 443
E 281 444
E 281 451
E 282 290
E 282 372
E 282 427
E 282 458
E 282 469
E 283 309
E 283 317
E 283 369
E 284 364
E 285 291
E 285 315
E 285 353
E 286 298
E 286 312
E 286 327
E 286 361
E 286 404
E 286 493
E 287 308
E 287 378
E 287 417
E 287 419
E 287 446
E 287 478
E 288 295
E 288 301
E 288 349
E 288 438
E 288 480
E 289 313
E 289 363
E 289 454
E 290 372
E 290 411
E 290 421
E 290 427
E 290 458
E 291 315
E 291 405
E 291 487
E 292 499
E 293 408
E 293 415
E 294 350
E 294 418
E 294 436
E 294 445
E 295 395
E 295 406
E 295 428
E 295 429
E 295 438
E 295 483
E 295 492
E 296 366
E 296 491
E 296 498
E 297 367
E 297 390
E 297 393
E 297 441
E 297 452
E 298 348
E 298 359
E 298 493
E 299 390
E 299 408
E 300 323
E 300 388
E 300 401
E 300 456
E 300 488
E 301 349
E 301 438
E 301 473
E 301 480
E 301 490
E 302 303
E 302 308
E 302 339
E 302 484
E 303 307
E 303 332
E 303 445
E 303 484
E 304 320
E 304 370
E 304 377
E 304 455
E 304 456
E 305 394
E 306 416
E 307 350
E 307 445
E 307 484
E 308 339
E 308 357
E 308 381
E 308 417
E 308 446
E 309 317
E 309 369
E 309 500
E 310 351
E 310 365
E 310 400
E 310 468
E 310 489
E 311 358
E 311 366
E 311 491
E 312 348
E 312 361
E 312 380
E 312 386
E 312 404
E 313 398
E 314 397
E 314 431
E 314 481
E 315 423
E 315 439
E 315 472
E 315 487
E 316 328
E 316 333
E 316 357
E 316 381
E 316 399
E 316 414
E 316 417
E 316 457
E 317 369
E 317 435
E 317 466
E 318 326
E 318 342
E 318 344
E 318 345
E 318 383
E 319 402
E 319 411
E 320 323
E 320 370
E 320 377
E 320 455
E 321 440
E 321 460
E 322 336
E 322 435
E 322 466
E 323 377
E 323 388
E 323 488
E 324 397
E 324 431
E 325 374
E 325 452
E 325 470
E 326 344
E 326 345
E 326 383
E 326 475
E 327 354
E 327 361
E 327 471
E 327 493
E 328 333
E 328 381
E 328 391
E 328 399
E 328 417
E 329 360
E 329 384
E 329 396
E 329 444
E 330 395
E 330 406
E 330 428
E 330 429
E 330 433
E 330 474
E 330 481
E 331 350
E 331 376
E 331 440
E 331 494
E 332 373
E 332 430
E 333 482
E 334 368
E 334 371
E 334 412
E 334 436
E 334 459
E 335 367
E 335 441
E 336 463
E 337 371
E 337 440
E 337 460
E 337 486
E 337 494
E 338 340
E 338 352
E 338 476
E 338 497
E 339 410
E 339 484
E 340 352
E 340 425
E 340 465
E 341 416
E 341 422
E 342 344
E 342 409
E 342 427
E 342 458
E 343 479
E 343 499
E 344 345
E 344 427
E 344 458
E 344 469
E 345 379
E 345 383
E 345 475
E 345 485
E 346 347
E 346 438
E 346 464
E 347 412
E 347 413
E 347 459
E 347 464
E 348 355
E 348 359
E 348 404
E 349 352
E 349 473
E 349 480
E 349 490
E 350 445
E 350 484
E 351 365
E 351 400
E 351 468
E 352 476
E 352 497
E 353 415
E 354 471
E 354 482
E 355 434
E 356 453
E 357 381
E 357 417
E 357 457
E 358 366
E 358 392
E 358 491
E 359 362
E 359 493
E 360 376
E 360 384
E 361 386
E 361 404
E 361 471
E 362 434
E 363 426
E 363 454
E 363 462
E 364 420
E 365 400
E 365 468
E 365 489
E 366 491
E 367 393
E 367 441
E 367 452
E 368 371
E 368 412
E 368 436
E 368 459
E 369 487
E 370 377
E 370 455
E 370 456
E 371 412
E 371 459
E 372 391
E 372 411
E 372 421
E 372 422
E 373 430
E 373 439
E 373 477
E 374 452
E 374 470
E 375 398
E 375 496
E 375 500
E 376 384
E 376 440
E 377 455
E 377 456
E 378 381
E 378 391
E 378 399
E 378 417
E 378 446
E 378 478
E 379 383
E 379 449
E 379 475
E 379 485
E 380 386
E 380 479
E 381 391
E 381 399
E 381 417
E 382 419
E 382 443
E 382 451
E 383 475
E 383 485
E 384 447
E 385 387
E 385 431
E 385 442
E 385 448
E 385 450
E 386 404
E 386 471
E 387 403
E 387 437
E 387 442
E 387 450
E 387 463
E 388 488
E 389 483
E 390 393
E 390 452
E 391 399
E 391 417
E 391 478
E 392 454
E 392 462
E 392 467
E 392 498
E 393 441
E 393 452
E 395 406
E 395 428
E 395 429
E 395 433
E 395 483
E 395 492
E 396 444
E 396 495
E 397 431
E 398 500
E 399 417
E 400 468
E 400 489
E 401 434
E 401 455
E 401 456
E 402 411
E 402 416
E 402 422
E 403 437
E 405 487
E 405 496
E 406 428
E 406 429
E 406 433
E 406 474
E 406 481
E 407 461
E 409 427
E 411 421
E 411 422
E 412 459
E 412 473
E 414 457
E 416 424
E 417 446
E 417 478
E 418 436
E 418 445
E 419 443
E 419 446
E 419 451
E 419 478
E 420 425
E 420 432
E 420 465
E 421 422
E 423 430
E 423 439
E 423 472
E 425 432
E 425 465
E 426 462
E 427 458
E 427 469
E 428 429
E 428 433
E 428 481
E 428 483
E 428 492
E 429 433
E 429 483
E 429 492
E 430 439
E 431 450
E 432 465
E 433 474
E 433 481
E 433 492
E 434 456
E 435 466
E 435 500
E 437 463
E 439 472
E 440 460
E 440 494
E 442 448
E 442 450
E 442 463
E 443 451
E 446 478
E 448 463
E 449 451
E 449 475
E 449 485
E 452 470
E 453 476
E 453 497
E 454 462
E 454 467
E 455 456
E 456 488
E 458 469
E 460 486
E 460 494
E 467 498
E 468 489
E 472 487
E 473 480
E 473 490
E 474 481
E 475 485
E 476 497
E 480 490
E 483 492
E 19 446
E 97 179
E 130 372
E 170 263
E 197 227
E 209 250
E 217 346
E 306 424
E 321 494
E 328 372
E 382 478
E 6 255
E 19 443
E 28 153
E 48 121
E 127 307
E 287 443
E 288 490
E 291 353
E 473 486
E 12 139
E 28 213
E 44 392
E 157 492
E 190 297
E 227 444
E 414 482
E 156 165
E 157 428
E 178 296
E 336 466
E 376 494
E 403 463
E 15 303
E 63 90
E 152 499
E 201 422
E 211 461
E 257 321
E 338 453
E 25 425
E 41 269
E 44 363
E 64 213
E 65 190
E 174 401
E 244 248
E 266 441
E 380 404
E 24 142
E 75 410
E 96 325
E 135 463
E 165 440
E 309 435
E 341 402
E 347 368
E 41 141
E 139 206
E 153 191
E 157 429
E 175 244
E 186 379
E 200 462
E 264 397
E 288 389
E 326 342
E 70 71
E 71 168
E 109 434
E 116 203
E 166 440
E 201 341
E 210 317
E 211 379
E 32 406
E 44 268
E 100 347
E 206 296
E 291 496
E 326 485
E 23 37
E 61 331
E 73 114
E 85 355
E 136 310
E 190 299
E 443 478
E 26 345
E 54 264
E 83 157
E 90 140
E 135 442
E 150 350
E 173 390
E 311 392
E 428 474
E 9 13
E 25 129
E 25 349
E 41 153
E 45 198
E 80 126
E 147 444
E 190 393
E 193 264
E 277 423
E 389 476
E 9 367
E 23 192
E 96 452
E 144 252
E 161 302
E 271 354
E 26 231
E 57 75
E 61 294
E 62 362
E 68 397
E 115 262
E 151 290
E 372 458
E 16 225
E 151 215
E 246 427
E 274 383
E 17 466
E 102 439
E 162 334
E 176 227
E 219 416
E 235 432
E 5 196
E 23 330
E 48 455
E 59 360
E 69 211
E 102 423
E 135 448
E 157 267
E 194 226
E 224 393
E 47 412
E 54 314
E 120 368
E 200 322
E 212 328
E 227 419
E 234 323
E 336 435
E 22 27
E 38 161
E 70 203
E 93 177
E 118 137
E 145 153
E 252 467
E 283 487
E 441 452
END

SECTION Terminals
Terminals  500
T 1 0.934685
T 2 -8.04127
T 3 -8.72784
T 4 1.07446
T 5 0.270718
T 6 0
T 7 0
T 8 5.73097
T 9 -6.27823
T 10 5.69131
T 11 3.66707
T 12 6.26891
T 13 8.30393
T 14 -7.53739
T 15 -6.29534
T 16 -5.92832
T 17 0
T 18 -0.327622
T 19 -9.14538
T 20 9.15107
T 21 -5.18165
T 22 0
T 23 6.03843
T 24 3.11214
T 25 7.89985
T 26 9.8709
T 27 -6.45441
T 28 -9.23662
T 29 9.57392
T 30 2.84109
T 31 -4.30167
T 32 0
T 33 4.3646
T 34 0
T 35 -1.53806
T 36 0
T 37 7.23776
T 38 5.757
T 39 2.92884
T 40 0
T 41 0
T 42 1.00874
T 43 -4.64196
T 44 3.4507
T 45 -2.48945
T 46 5.87946
T 47 -8.47503
T 48 3.40112
T 49 8.14976
T 50 3.13408
T 51 -5.62819
T 52 0
T 53 1.18422
T 54 -8.07928
T 55 0
T 56 -6.30398
T 57 4.17035
T 58 3.93233
T 59 0
T 60 0
T 61 0
T 62 -5.85716
T 63 8.21011
T 64 2.15353
T 65 6.54137
T 66 7.83166
T 67 -1.5103
T 68 3.19144
T 69 4.76498
T 70 9.91329
T 71 3.29128
T 72 -9.59659
T 73 7.26035
T 74 4.15503
T 75 9.28287
T 76 0
T 77 0
T 78 0
T 79 0
T 80 -2.51307
T 81 0
T 82 0.572261
T 83 0
T 84 1.81294
T 85 0
T 86 0
T 87 0.662767
T 88 -6.00151
T 89 0.899708
T 90 0.391366
T 91 0
T 92 -4.04846
T 93 0
T 94 7.97594
T 95 0
T 96 1.70118
T 97 6.09089
T 98 -3.9154
T 99 0
T 100 0
T 101 0
T 102 0
T 103 6.42909
T 104 -9.50778
T 105 8.71852
T 106 0
T 107 -3.83082
T 108 3.58489
T 109 0
T 110 -4.70545
T 111 4.38144
T 112 0.157153
T 113 -0.691277
T 114 -4.23274
T 115 2.82464
T 116 5.80406
T 117 5.12836
T 118 2.11282
T 119 3.91949
T 120 4.62229
T 121 3.4202
T 122 -9.07311
T 123 0
T 124 6.9217
T 125 -5.21579
T 126 6.26088
T 127 6.14009
T 128 7.32597
T 129 3.96796
T 130 2.17744
T 131 5.35063
T 132 0
T 133 7.24519
T 134 6.02798
T 135 0.823577
T 136 -7.21307
T 137 3.14757
T 138 -0.482902
T 139 0.211321
T 140 0
T 141 8.71723
T 142 -8.04236
T 143 4.41192
T 144 0
T 145 0
T 146 4.07108
T 147 8.30571
T 148 0
T 149 -8.17475
T 150 6.55497
T 151 1.37306
T 152 -2.34607
T 153 0
T 154 0
T 155 0
T 156 3.95755
T 157 0
T 158 5.61665
T 159 -9.20054
T 160 9.23438
T 161 7.0035
T 162 6.05566
T 163 -2.27868
T 164 0
T 165 0.857342
T 166 7.36575
T 167 -3.34879
T 168 -2.50365
T 169 7.98822
T 170 -0.621141
T 171 1.53395
T 172 0
T 173 7.83103
T 174 3.99381
T 175 6.31414
T 176 0
T 177 2.17131
T 178 5.08482
T 179 6.14536
T 180 5.82296
T 181 2.24951
T 182 -6.40422
T 183 3.45727
T 184 0
T 185 3.20495
T 186 8.62607
T 187 -6.84971
T 188 0
T 189 9.88761
T 190 -7.73677
T 191 8.63691
T 192 3.66533
T 193 2.52949
T 194 6.52266
T 195 -1.1242
T 196 0
T 197 9.78781
T 198 1.40443
T 199 2.13532
T 200 -0.66421
T 201 0
T 202 1.94144
T 203 0
T 204 1.47441
T 205 0
T 206 3.27476
T 207 0
T 208 4.86623
T 209 9.9525
T 210 0
T 211 0.788623
T 212 3.71738
T 213 -5.86436
T 214 7.23036
T 215 0
T 216 -7.68719
T 217 8.97782
T 218 0
T 219 3.31681
T 220 4.34916
T 221 2.79851
T 222 0
T 223 0
T 224 3.58074
T 225 4.9197
T 226 0
T 227 -1.68589
T 228 0
T 229 6.9981
T 230 0
T 231 5.6674
T 232 3.33082
T 233 0
T 234 5.05244
T 235 0
T 236 0
T 237 0
T 238 0.228747
T 239 6.41795
T 240 0
T 241 7.93488
T 242 0.840131
T 243 1.18439
T 244 4.027
T 245 0
T 246 -1.18114
T 247 9.20594
T 248 7.52477
T 249 -6.48193
T 250 7.63285
T 251 4.35287
T 252 8.10706
T 253 -8.07809
T 254 2.09031
T 255 0
T 256 -6.7721
T 257 7.75885
T 258 0
T 259 6.38978
T 260 8.82751
T 261 0.920911
T 262 -5.40779
T 263 9.3987
T 264 5.99729
T 265 0
T 266 6.42387
T 267 9.61454
T 268 6.9683
T 269 6.66721
T 270 2.78661
T 271 8.38616
T 272 6.77062
T 273 2.6634
T 274 1.06561
T 275 0
T 276 6.86384
T 277 9.17702
T 278 5.36552
T 279 0
T 280 8.56613
T 281 0.351914
T 282 5.79139
T 283 0
T 284 0
T 285 6.10182
T 286 0
T 287 8.33196
T 288 7.02493
T 289 6.70281
T 290 5.02496
T 291 0.912317
T 292 0.425239
T 293 6.82719
T 294 2.4435
T 295 7.60851
T 296 3.70482
T 297 0
T 298 7.92389
T 299 0
T 300 8.47088
T 301 1.78181
T 302 5.49244
T 303 0
T 304 8.60029
T 305 0
T 306 9.40534
T 307 0
T 308 7.21393
T 309 -8.90054
T 310 0
T 311 -6.87413
T 312 7.75881
T 313 0.142625
T 314 2.51641
T 315 9.95914
T 316 9.58107
T 317 0.585072
T 318 -6.44745
T 319 5.02157
T 320 3.91369
T 321 8.4558
T 322 0
T 323 5.44077
T 324 0
T 325 3.28662
T 326 9.41976
T 327 0
T 328 3.00698
T 329 0
T 330 2.14681
T 331 0
T 332 -4.113
T 333 0
T 334 0
T 335 -5.38312
T 336 0
T 337 7.89529
T 338 9.54354
T 339 1.31063
T 340 -7.2819
T 341 0
T 342 -1.92466
T 343 0
T 344 -3.71857
T 345 0.397562
T 346 -5.55772
T 347 3.02046
T 348 5.76783
T 349 -1.30436
T 350 4.62663
T 351 0
T 352 4.85635
T 353 8.05768
T 354 3.84199
T 355 3.01428
T 356 6.43311
T 357 7.37601
T 358 9.8097
T 359 0.723445
T 360 4.24224
T 361 0
T 362 4.9421
T 363 0.819518
T 364 6.45053
T 365 9.79451
T 366 7.35928
T 367 9.66603
T 368 0
T 369 -4.64697
T 370 6.29721
T 371 0
T 372 2.43347
T 373 0
T 374 0.119844
T 375 0
T 376 4.48829
T 377 9.63967
T 378 0.113972
T 379 2.2846
T 380 5.89484
T 381 -2.94775
T 382 2.99978
T 383 8.16765
T 384 0
T 385 9.665
T 386 0.398109
T 387 4.76296
T 388 7.77492
T 389 0
T 390 2.07918
T 391 6.34782
T 392 0
T 393 -9.05427
T 394 -4.26633
T 395 5.72638
T 396 6.22174
T 397 0
T 398 0
T 399 5.9576
T 400 0
T 401 -8.59194
T 402 -4.57422
T 403 3.99071
T 404 3.48893
T 405 -0.674704
T 406 -6.9657
T 407 9.57087
T 408 4.22421
T 409 -0.185197
T 410 -7.82596
T 411 9.10097
T 412 0.838664
T 413 5.50872
T 414 1.75821
T 415 -6.74275
T 416 2.21146
T 417 0
T 418 0
T 419 9.85544
T 420 -7.40242
T 421 7.01527
T 422 0
T 423 0
T 424 -3.38081
T 425 1.04521
T 426 0
T 427 1.81179
T 428 6.70595
T 429 8.64006
T 430 4.58227
T 431 9.56446
T 432 1.37655
T 433 7.31611
T 434 0
T 435 0
T 436 2.89149
T 437 0
T 438 0
T 439 0.691333
T 440 2.94979
T 441 3.21112
T 442 4.5326
T 443 7.52847
T 444 0
T 445 0
T 446 -3.76879
T 447 7.05445
T 448 -3.00252
T 449 -2.34628
T 450 0
T 451 0
T 452 6.90315
T 453 3.38767
T 454 -5.89207
T 455 2.31366
T 456 -2.3441
T 457 9.01151
T 458 0.972236
T 459 0
T 460 2.2554
T 461 3.00471
T 462 9.30655
T 463 7.16616
T 464 0
T 465 2.61601
T 466 9.0116
T 467 -6.33127
T 468 1.97622
T 469 7.54485
T 470 3.74735
T 471 -3.38736
T 472 5.25403
T 473 6.40729
T 474 7.47552
T 475 3.32986
T 476 4.15539
T 477 3.76992
T 478 2.5836
T 479 0
T 480 -3.05082
T 481 0
T 482 4.0484
T 483 8.1056
T 484 8.95879
T 485 2.37742
T 486 0
T 487 0
T 488 -5.79356
T 489 0
T 490 0.0206662
T 491 -8.7796
T 492 1.10912
T 493 3.6469
T 494 -7.82584
T 495 -2.87704
T 496 1.80878
T 497 0
T 498 6.7656
T 499 6.81672
T 500 8.18354
END

EOF
